Data path: /scratch/opt/lxu/CFLG/benchmarks/tree_B
Instance: treeB.700.70
Result path: /scratch/opt/lxu/CFLG/results/tree_B
Solver: Gurobi
Time limit: 7200
Formulation: LEFPAI
Cover: Small
julia --project=. src/main.jl /scratch/opt/lxu/CFLG/benchmarks/tree_B treeB.700.70 /scratch/opt/lxu/CFLG/results/tree_B Gurobi 7200 LEFPAI Small
The latest version of Julia in the `release` channel is 1.11.5+0.x64.linux.gnu. You currently have `1.11.4+0.x64.linux.gnu` installed. Run:

  juliaup update

in your terminal shell to install Julia 1.11.5+0.x64.linux.gnu and update the `release` channel to that version.
/scratch/opt/lxu/CFLG/benchmarks/tree_B Gurobi 7200.0 /scratch/opt/lxu/CFLG/results/tree_B treeB.700.70 LEFPAI Small
/scratch/opt/lxu/CFLG/benchmarks/tree_B/treeB.700.70

 read graph
data loaded


after absorb:545 700

max_piece:24
problem_graph/original graph: node: 545/700 edge: 614/769 dlt: 0.37440436847593095 break_avg_len: 1.8756805169901691 break_max_len: 8.285043455360594Vbar/V, Ebar/E(188, 545, 257, 614)
Set parameter TokenServer to value "solice01.zib.de"
Set parameter Threads to value 1
Set parameter OutputFlag to value 1
Gurobi Optimizer version 12.0.1 build v12.0.1rc0 (linux64 - "Debian GNU/Linux 12 (bookworm)")

CPU model: Intel(R) Xeon(R) Gold 5122 CPU @ 3.60GHz, instruction set [SSE2|AVX|AVX2|AVX512]
Thread count: 8 physical cores, 16 logical processors, using up to 1 threads

Non-default parameters:
Threads  1

Optimize a model with 685 rows, 1131 columns and 1885 nonzeros
Model fingerprint: 0x9b289d65
Coefficient statistics:
  Matrix range     [1e+00, 1e+00]
  Objective range  [1e+00, 1e+00]
  Bounds range     [1e+00, 1e+00]
  RHS range        [1e+00, 1e+00]
Presolve removed 685 rows and 1131 columns
Presolve time: 0.00s
Presolve: All rows and columns removed
Iteration    Objective       Primal Inf.    Dual Inf.      Time
       0    1.2000000e+02   0.000000e+00   0.000000e+00      0s

Solved in 0 iterations and 0.00 seconds (0.00 work units)
Optimal objective  1.200000000e+02

User-callback calls 35, time in user-callback 0.01 sec
elapsed CPU time: 1.547052 seconds
Set parameter TokenServer to value "solice01.zib.de"
Set parameter Threads to value 1
Set parameter OutputFlag to value 1
Set parameter MIPGap to value 0.0001
Set parameter MIPGapAbs to value 0.999998
Set parameter TimeLimit to value 7198.452948

 more cuts: false 0.37440436847593095 false
is_attach:trueformulation:LEFPAI0 377 0

 model loaded

Gurobi Optimizer version 12.0.1 build v12.0.1rc0 (linux64 - "Debian GNU/Linux 12 (bookworm)")

CPU model: Intel(R) Xeon(R) Gold 5122 CPU @ 3.60GHz, instruction set [SSE2|AVX|AVX2|AVX512]
Thread count: 8 physical cores, 16 logical processors, using up to 1 threads

Non-default parameters:
TimeLimit  7198.452948
MIPGapAbs  0.999998
Threads  1

Optimize a model with 3205 rows, 3461 columns and 7268 nonzeros
Model fingerprint: 0x0cbe5309
Model has 1337 simple general constraints
  1337 INDICATOR
Variable types: 1062 continuous, 2399 integer (2399 binary)
Coefficient statistics:
  Matrix range     [1e-03, 8e+00]
  Objective range  [1e+00, 1e+00]
  Bounds range     [1e-03, 8e+00]
  RHS range        [1e-06, 8e+00]
  GenCon rhs range [7e-04, 8e+00]
  GenCon coe range [1e+00, 1e+00]
Presolve removed 3205 rows and 3461 columns
Presolve time: 0.01s
Presolve: All rows and columns removed

Explored 0 nodes (0 simplex iterations) in 0.01 seconds (0.01 work units)
Thread count was 1 (of 16 available processors)

Solution count 1: 1130 

Optimal solution found (tolerance 1.00e-04)
Best objective 1.130000000000e+03, best bound 1.130000000000e+03, gap 0.0000%

User-callback calls 983, time in user-callback 0.00 sec

 sepatime0 0 0
1130.0Stat(MathOptInterface.OPTIMAL, 1130.0, 1130.0, 0.0, 0.0, 1.547052, 0.012041091918945312, 0, Main.CFLG.LEFPAI, "", #undef)
